c Command line: hgen8 190 10
p cnf 190 294
106 177 39 60 0
7 112 29 59 0
36 180 90 169 0
114 50 45 65 0
178 179 111 144 0
10 123 132 141 0
143 164 47 57 0
25 101 188 31 0
20 184 186 13 0
125 147 43 55 0
61 134 81 151 0
44 153 148 63 0
121 161 103 53 0
6 86 96 11 0
98 88 14 71 0
105 155 97 40 0
94 122 108 26 0
35 109 171 135 0
159 158 118 163 0
126 128 91 19 0
2 130 32 92 0
1 52 9 149 0
4 99 85 117 0
100 28 157 80 0
5 142 70 21 0
12 174 166 146 0
181 156 22 3 0
34 131 66 154 0
58 167 56 172 0
87 116 41 68 0
175 72 140 176 0
165 17 119 8 0
82 89 15 16 0
64 54 133 42 0
77 190 137 95 0
162 189 136 75 0
84 49 76 79 0
67 51 160 73 0
38 152 129 187 0
-1 -2 0
-1 -3 0
-1 -4 0
-1 -5 0
-2 -3 0
-2 -4 0
-2 -5 0
-3 -4 0
-3 -5 0
-4 -5 0
-6 -7 0
-6 -8 0
-6 -9 0
-6 -10 0
-7 -8 0
-7 -9 0
-7 -10 0
-8 -9 0
-8 -10 0
-9 -10 0
-11 -12 0
-11 -13 0
-11 -14 0
-11 -15 0
-12 -13 0
-12 -14 0
-12 -15 0
-13 -14 0
-13 -15 0
-14 -15 0
-16 -17 0
-16 -19 0
-16 -20 0
-17 -19 0
-17 -20 0
-19 -20 0
-21 -22 0
-21 -25 0
-22 -25 0
-26 -28 0
-26 -29 0
-28 -29 0
-31 -32 0
-31 -34 0
-31 -35 0
-32 -34 0
-32 -35 0
-34 -35 0
-36 -38 0
-36 -39 0
-36 -40 0
-38 -39 0
-38 -40 0
-39 -40 0
-41 -42 0
-41 -43 0
-41 -44 0
-41 -45 0
-42 -43 0
-42 -44 0
-42 -45 0
-43 -44 0
-43 -45 0
-44 -45 0
-47 -49 0
-47 -50 0
-49 -50 0
-51 -52 0
-51 -53 0
-51 -54 0
-51 -55 0
-52 -53 0
-52 -54 0
-52 -55 0
-53 -54 0
-53 -55 0
-54 -55 0
-56 -57 0
-56 -58 0
-56 -59 0
-56 -60 0
-57 -58 0
-57 -59 0
-57 -60 0
-58 -59 0
-58 -60 0
-59 -60 0
-61 -63 0
-61 -64 0
-61 -65 0
-63 -64 0
-63 -65 0
-64 -65 0
-66 -67 0
-66 -68 0
-66 -70 0
-67 -68 0
-67 -70 0
-68 -70 0
-71 -72 0
-71 -73 0
-71 -75 0
-72 -73 0
-72 -75 0
-73 -75 0
-76 -77 0
-76 -79 0
-76 -80 0
-77 -79 0
-77 -80 0
-79 -80 0
-81 -82 0
-81 -84 0
-81 -85 0
-82 -84 0
-82 -85 0
-84 -85 0
-86 -87 0
-86 -88 0
-86 -89 0
-86 -90 0
-87 -88 0
-87 -89 0
-87 -90 0
-88 -89 0
-88 -90 0
-89 -90 0
-91 -92 0
-91 -94 0
-91 -95 0
-92 -94 0
-92 -95 0
-94 -95 0
-96 -97 0
-96 -98 0
-96 -99 0
-96 -100 0
-97 -98 0
-97 -99 0
-97 -100 0
-98 -99 0
-98 -100 0
-99 -100 0
-101 -103 0
-101 -105 0
-103 -105 0
-106 -108 0
-106 -109 0
-108 -109 0
-111 -112 0
-111 -114 0
-112 -114 0
-116 -117 0
-116 -118 0
-116 -119 0
-117 -118 0
-117 -119 0
-118 -119 0
-121 -122 0
-121 -123 0
-121 -125 0
-122 -123 0
-122 -125 0
-123 -125 0
-126 -128 0
-126 -129 0
-126 -130 0
-128 -129 0
-128 -130 0
-129 -130 0
-131 -132 0
-131 -133 0
-131 -134 0
-131 -135 0
-132 -133 0
-132 -134 0
-132 -135 0
-133 -134 0
-133 -135 0
-134 -135 0
-136 -137 0
-136 -140 0
-137 -140 0
-141 -142 0
-141 -143 0
-141 -144 0
-142 -143 0
-142 -144 0
-143 -144 0
-146 -147 0
-146 -148 0
-146 -149 0
-147 -148 0
-147 -149 0
-148 -149 0
-151 -152 0
-151 -153 0
-151 -154 0
-151 -155 0
-152 -153 0
-152 -154 0
-152 -155 0
-153 -154 0
-153 -155 0
-154 -155 0
-156 -157 0
-156 -158 0
-156 -159 0
-156 -160 0
-157 -158 0
-157 -159 0
-157 -160 0
-158 -159 0
-158 -160 0
-159 -160 0
-161 -162 0
-161 -163 0
-161 -164 0
-161 -165 0
-162 -163 0
-162 -164 0
-162 -165 0
-163 -164 0
-163 -165 0
-164 -165 0
-166 -167 0
-166 -169 0
-167 -169 0
-171 -172 0
-171 -174 0
-171 -175 0
-172 -174 0
-172 -175 0
-174 -175 0
-176 -177 0
-176 -178 0
-176 -179 0
-176 -180 0
-177 -178 0
-177 -179 0
-177 -180 0
-178 -179 0
-178 -180 0
-179 -180 0
-181 -184 0
-186 -187 0
-186 -188 0
-186 -189 0
-186 -190 0
-187 -188 0
-187 -189 0
-187 -190 0
-188 -189 0
-188 -190 0
-189 -190 0
